c ---- [ banner ] ------------------------------------------------------------
c
c Kissat SAT Solver
c 
c Copyright (c) 2021-2024 Armin Biere University of Freiburg
c Copyright (c) 2019-2021 Armin Biere Johannes Kepler University Linz
c 
c Version 4.0.1 43f02cf3e992cb44653b35e5cb26f93281552ae0
c gcc (Ubuntu 13.2.0-23ubuntu4) 13.2.0 -W -Wall -O3 -DNDEBUG
c Thu Sep 12 12:27:46 CEST 2024 Linux abryzen9 6.8.0-41-generic x86_64
c
c ---- [ parsing ] -----------------------------------------------------------
c
c opened and reading DIMACS file:
c
c   /data/artifact/AMulet2.0_artifact/exp4/cnf_dc2_64/64_64_U_SP_DT_KS_GenMul_dc2.cnf
c
c parsed 'p cnf 29360 129140' header
c closing input after reading 2581347 bytes (2 MB)
c finished parsing after 0.02 seconds
c
c ---- [ options ] -----------------------------------------------------------
c
c --stable=0                       (different from default '1')
c
c ---- [ solving ] -----------------------------------------------------------
c
c  seconds switched rate     size/glue tier1  binary           remaining
c         MB reductions conflicts size  tier2     irredundant
c          level restarts redundant glue  trail           variables
c
c *  0.02 10 0 0 0  0 0   0   0 0.0 0 0 0 0 0% 11826 117312 29357 100%
c (  0.05 12 0 0 0  0 0   0   0 0.0 0 0 0 0 0% 11826 117312 29357 100%
c .  0.05 13 0 0 0  0 0   0   0 0.0 0 0 0 0 0% 11822 117312 29357 100%
c c  0.15 18 0 0 0  0 0   0   0 0.0 0 0 0 0 0% 18395 104168 26071 89%
c d  0.16 18 0 0 0  0 0   0   0 0.0 0 0 0 0 0% 11823 104168 26071 89%
c =  0.22 18 0 0 0  0 0   0   0 0.0 0 0 0 0 0% 12383 104166 25791 88%
c d  0.23 18 0 0 0  0 0   0   0 0.0 0 0 0 0 0% 11823 104166 25791 88%
c f  0.35 17 0 0 0  0 0   0   0 0.0 0 0 0 0 0% 16489 96827 28409 97%
c e  0.54 27 0 0 0  0 0   0   0 0.0 0 0 0 0 0% 10307 104789 19548 67%
c )  0.54 27 0 0 0  0 0   0   0 0.0 0 0 0 0 0% 10307 104789 19548 67%
c {  0.57 27 0 0 0  0 0   0   0 0.0 0 0 2 6 0% 10307 104789 19548 67%
c -  0.88 26 239 0 1 204 37 1000 748 2.9 18 6 5 12 23% 10334 104789 19548 67%
c -  1.19 26 323 0 2 358 41 2000 1281 3.5 26 7 3 11 22% 10407 104789 19548 67%
c c  1.39 25 284 0 2 394 38 2502 1554 3.7 27 7 3 10 24% 10518 104367 19482 66%
c d  1.39 25 284 0 2 394 38 2502 1509 3.7 27 7 3 10 24% 10386 104367 19482 66%
c u  1.41 25 284 0 2 394 38 2502 1212 3.7 27 7 3 10 24% 10398 104367 19482 66%
c v  1.44 25 284 0 2 394 38 2502 972 3.7 27 7 3 10 24% 10398 104367 19482 66%
c w  1.47 29 284 0 2 394 38 2502 972 3.7 27 7 3 10 24% 10398 104367 19482 66%
c x  1.49 31 284 0 2 394 38 2502 972 3.7 27 7 3 10 24% 10398 104089 19482 66%
c =  1.59 31 284 0 2 394 38 2502 972 3.7 27 7 3 10 24% 10582 104089 19390 66%
c
c  seconds   switched   rate      size/glue tier1     binary           remaining
c         MB  reductions conflicts      size  tier2       irredundant
c           level restarts    redundant   glue    trail           variables
c
c d  1.60 31 284 0 2 394 38 2502 970 3.7 27 7 3 10 24% 10394 104089 19388 66%
c f  1.65 31 284 0 2 394 38 2502 970 3.7 27 7 3 10 24% 10973 102937 19960 68%
c u  1.74 31 284 0 2 394 38 2502 937 3.7 27 7 3 10 24% 10974 102937 19960 68%
c v  1.75 31 284 0 2 394 38 2502 909 3.7 27 7 3 10 24% 10974 102937 19960 68%
c w  1.80 31 284 0 2 394 38 2502 903 3.7 27 7 3 10 24% 10974 102937 19960 68%
c x  1.82 31 284 0 2 394 38 2502 903 3.7 27 7 3 10 24% 10974 102720 19960 68%
c =  1.91 31 284 0 2 394 38 2502 903 3.7 27 7 3 10 24% 11108 102720 19893 68%
c d  1.92 31 284 0 2 394 38 2502 903 3.7 27 7 3 10 24% 10962 102720 19893 68%
c f  1.97 31 284 0 2 394 38 2502 903 3.7 27 7 3 10 24% 11086 102534 19955 68%
c -  2.24 31 324 0 3 504 39 3414 1470 3.8 28 7 3 10 24% 11102 102534 19955 68%
c -  2.66 31 438 0 4 681 37 5146 2655 3.8 26 7 3 10 24% 11131 102534 19955 68%
c -  3.23 31 404 0 5 919 35 7146 3808 3.6 26 7 3 11 25% 11204 102534 19955 68%
c d  3.31 31 400 0 5 939 34 7705 4309 3.6 25 7 3 11 24% 11152 102534 19924 68%
c u  3.35 31 400 0 5 939 34 7705 3574 3.6 25 7 3 11 24% 11168 102534 19924 68%
c v  3.39 31 400 0 5 939 34 7705 3255 3.6 25 7 3 11 24% 11168 102534 19924 68%
c w  3.42 31 400 0 5 939 34 7705 3254 3.6 25 7 3 11 24% 11168 102534 19924 68%
c x  3.45 31 400 0 5 939 34 7705 3254 3.6 25 7 3 11 24% 11168 102367 19924 68%
c =  3.58 31 400 0 5 939 34 7705 3254 3.6 25 7 3 11 24% 12116 102367 19450 66%
c d  3.59 31 400 0 5 939 34 7705 3249 3.6 25 7 3 11 24% 11058 102367 19447 66%
c t  3.61 31 400 0 5 939 34 7705 3249 3.6 25 7 3 11 24% 11053 102367 19447 66%
c
c  seconds   switched   rate       size/glue tier1     binary           remaining
c         MB  reductions conflicts       size  tier2       irredundant
c           level restarts    redundant    glue    trail           variables
c
c f  3.66 31 400 0 5 939 34 7705 3249 3.6 25 7 3 11 24% 11551 101616 19696 67%
c c  3.73 31 400 0 5 939 34 7705 3249 3.6 25 7 3 11 24% 11553 101612 19695 67%
c d  3.74 31 400 0 5 939 34 7705 3249 3.6 25 7 3 11 24% 11551 101612 19695 67%
c u  3.77 31 400 0 5 939 34 7705 3143 3.6 25 7 3 11 24% 11554 101612 19695 67%
c v  3.80 31 400 0 5 939 34 7705 3067 3.6 25 7 3 11 24% 11554 101612 19695 67%
c w  3.83 31 400 0 5 939 34 7705 3062 3.6 25 7 3 11 24% 11554 101612 19695 67%
c x  3.87 31 400 0 5 939 34 7705 3062 3.6 25 7 3 11 24% 11554 100913 19695 67%
c =  4.00 31 400 0 5 939 34 7705 3062 3.6 25 7 3 11 24% 12350 100913 19297 66%
c d  4.01 31 400 0 5 939 34 7705 3043 3.6 25 7 3 11 24% 11421 100913 19297 66%
c t  4.03 31 400 0 5 939 34 7705 3043 3.6 25 7 3 11 24% 11364 100913 19297 66%
c f  4.08 31 400 0 5 939 34 7705 3043 3.6 25 7 3 11 24% 13279 98040 20255 69%
c -  4.58 31 377 0 6 1103 34 9384 3874 3.7 27 7 2 10 25% 13326 98040 20255 69%
c o  4.81 31 366 0 6 1174 34 10168 4579 3.7 28 7 2 10 26% 13344 98040 20255 69%
c -  5.40 31 366 0 7 1338 34 11835 5159 3.9 31 8 2 10 27% 13386 98040 20255 69%
c s  5.67 31 371 0 7 1395 34 12508 5768 4.0 32 8 2 10 27% 13396 93210 20255 69%
c e  5.80 31 371 0 7 1395 34 12508 5768 4.0 32 8 2 10 27% 11956 94239 19553 67%
c s  5.80 31 371 0 7 1395 34 12508 5768 4.0 32 8 2 10 27% 11964 93660 19553 67%
c e  5.82 31 371 0 7 1395 34 12508 5768 4.0 32 8 2 10 27% 11944 93679 19545 67%
c ^  5.82 31 371 0 7 1395 34 12508 5768 4.0 32 8 2 10 27% 11944 93679 19545 67%
c -  6.44 31 366 0 8 1596 35 14480 6123 4.3 35 8 2 10 27% 11995 93679 19545 67%
c
c  seconds   switched    rate        size/glue tier1     binary          remaining
c         MB  reductions   conflicts       size  tier2       irredundant
c           level  restarts     redundant    glue    trail          variables
c
c d  6.78 31 367 0 8 1703 35 15785 7208 4.3 35 8 2 10 28% 11739 93679 19376 66%
c u  6.82 31 367 0 8 1703 35 15785 6455 4.3 35 8 2 10 28% 11749 93679 19376 66%
c v  6.88 31 367 0 8 1703 35 15785 5523 4.3 35 8 2 10 28% 11750 93679 19376 66%
c w  6.96 31 367 0 8 1703 35 15785 5523 4.3 35 8 2 10 28% 11750 93679 19376 66%
c x  7.01 31 367 0 8 1703 35 15785 5523 4.3 35 8 2 10 28% 11769 92876 19376 66%
c =  7.24 31 367 0 8 1703 35 15785 5523 4.3 35 8 2 10 28% 12737 92872 18892 64%
c d  7.25 31 367 0 8 1703 35 15785 5429 4.3 35 8 2 10 28% 11561 92872 18891 64%
c t  7.27 31 367 0 8 1703 35 15785 5429 4.3 35 8 2 10 28% 11490 92872 18891 64%
c f  7.34 31 367 0 8 1703 35 15785 5429 4.3 35 8 2 10 28% 11606 92636 18951 65%
c u  7.39 31 367 0 8 1703 35 15785 5287 4.3 35 8 2 10 28% 11611 92636 18951 65%
c v  7.43 31 367 0 8 1703 35 15785 5165 4.3 35 8 2 10 28% 11611 92636 18951 65%
c w  7.54 31 367 0 8 1703 35 15785 5145 4.3 35 8 2 10 28% 11611 92636 18951 65%
c x  7.58 31 367 0 8 1703 35 15785 5145 4.3 35 8 2 10 28% 11611 91330 18951 65%
c =  7.83 31 367 0 8 1703 35 15785 5145 4.3 35 8 2 10 28% 13027 91330 18243 62%
c d  7.84 31 367 0 8 1703 35 15785 5111 4.3 35 8 2 10 28% 11073 91330 18243 62%
c t  7.87 31 367 0 8 1703 35 15785 5111 4.3 35 8 2 10 28% 11070 91330 18243 62%
c -  8.33 31 360 0 9 1817 34 17309 5618 4.3 35 8 2 10 28% 11094 91330 18243 62%
c -  8.87 31 352 0 10 1939 32 20309 7337 4.2 32 8 2 10 27% 11129 91329 18243 62%
c o  8.88 31 351 0 10 1940 32 20335 7361 4.2 32 8 2 10 27% 11130 91329 18243 62%
c -  9.65 31 343 0 11 2196 32 23472 8790 4.2 33 8 2 10 27% 11207 91329 18243 62%
c
c  seconds   switched     rate         size/glue tier1     binary          remaining
c         MB   reductions   conflicts        size  tier2       irredundant
c           level   restarts      redundant    glue    trail          variables
c
c s 10.12 31 340 0 11 2357 31 25009 10171 4.2 34 8 2 10 28% 11229 88468 18243 62%
c e 10.23 31 340 0 11 2357 31 25009 10171 4.2 34 8 2 10 28% 9072 91346 17046 58%
c s 10.24 31 340 0 11 2357 31 25009 10171 4.2 34 8 2 10 28% 9074 91090 17046 58%
c e 10.25 31 340 0 11 2357 31 25009 10171 4.2 34 8 2 10 28% 9074 91090 17045 58%
c ^ 10.25 31 340 0 11 2357 31 25009 10171 4.2 34 8 2 10 28% 9074 91090 17045 58%
c - 10.52 31 337 0 12 2459 31 26790 9263 4.2 33 8 2 9 27% 9160 91090 17045 58%
c c 10.65 31 336 0 12 2477 31 26912 9371 4.2 33 8 2 9 27% 9232 90662 16979 58%
c d 10.65 31 336 0 12 2477 31 26912 9287 4.2 33 8 2 9 27% 8925 90662 16877 57%
c u 10.70 31 336 0 12 2477 31 26912 8242 4.2 33 8 2 9 27% 8943 90662 16877 57%
c v 10.74 31 336 0 12 2477 31 26912 7202 4.2 33 8 2 9 27% 8943 90662 16877 57%
c w 10.77 31 336 0 12 2477 31 26912 7199 4.2 33 8 2 9 27% 8943 90662 16877 57%
c x 10.84 31 336 0 12 2477 31 26912 7198 4.2 33 8 2 9 27% 8943 90147 16877 57%
c = 11.11 31 336 0 12 2477 31 26912 7198 4.2 33 8 2 9 27% 12517 90147 15090 51%
c d 11.12 31 336 0 12 2477 31 26912 6950 4.2 33 8 2 9 27% 8803 90147 15089 51%
c t 11.13 31 336 0 12 2477 31 26912 6950 4.2 33 8 2 9 27% 8799 90147 15089 51%
c f 11.20 31 336 0 12 2477 31 26912 6950 4.2 33 8 2 9 27% 8825 90059 15105 51%
c u 11.25 31 336 0 12 2477 31 26912 6404 4.2 33 8 2 9 27% 8825 90059 15105 51%
c v 11.28 31 336 0 12 2477 31 26912 6278 4.2 33 8 2 9 27% 8825 90059 15105 51%
c w 11.31 31 336 0 12 2477 31 26912 6275 4.2 33 8 2 9 27% 8825 90059 15105 51%
c x 11.41 31 336 0 12 2477 31 26912 6275 4.2 33 8 2 9 27% 8825 82935 15105 51%
c
c  seconds   switched     rate        size/glue tier1    binary          remaining
c         MB   reductions   conflicts       size  tier2      irredundant
c           level   restarts     redundant    glue   trail          variables
c
c = 11.67 31 336 0 12 2477 31 26912 6275 4.2 33 8 2 9 27% 10653 82933 14191 48%
c d 11.68 31 336 0 12 2477 31 26912 6238 4.2 33 8 2 9 27% 8803 82933 14191 48%
c - 12.18 31 329 0 13 2636 30 30254 8189 4.1 32 8 2 9 27% 8836 82933 14191 48%
c - 12.73 31 315 0 14 2857 29 33860 10074 4.0 31 8 2 8 26% 8887 82932 14191 48%
c - 13.56 31 304 0 15 3174 28 37601 11744 3.9 30 8 2 8 27% 8927 82932 14191 48%
c o 14.29 31 296 0 15 3440 28 40335 14193 3.9 31 8 2 8 27% 8963 82931 14191 48%
c c 14.74 31 294 0 15 3608 28 41241 15054 4.0 32 8 2 8 27% 9041 82313 14094 48%
c d 14.74 31 294 0 15 3608 28 41241 14750 4.0 32 8 2 8 27% 8847 82313 14094 48%
c u 14.81 31 294 0 15 3608 28 41241 12485 4.0 32 8 2 8 27% 8863 82313 14094 48%
c v 14.87 31 294 0 15 3608 28 41241 11596 4.0 32 8 2 8 27% 8863 82313 14094 48%
c w 14.92 31 294 0 15 3608 28 41241 11596 4.0 32 8 2 8 27% 8863 82313 14094 48%
c x 14.99 31 294 0 15 3608 28 41241 11596 4.0 32 8 2 8 27% 8872 75442 14094 48%
c d 15.27 31 294 0 15 3608 28 41241 11589 4.0 32 8 2 8 27% 8858 75442 14087 48%
c t 15.29 31 294 0 15 3608 28 41241 11589 4.0 32 8 2 8 27% 8855 75442 14087 48%
c c 15.36 31 294 0 15 3608 28 41241 11589 4.0 32 8 2 8 27% 8870 75378 14079 48%
c d 15.36 31 294 0 15 3608 28 41241 11533 4.0 32 8 2 8 27% 8854 75378 14079 48%
c u 15.42 31 294 0 15 3608 28 41241 11185 4.0 32 8 2 8 27% 8857 75378 14079 48%
c v 15.49 31 294 0 15 3608 28 41241 10450 4.0 32 8 2 8 27% 8859 75378 14079 48%
c w 15.59 31 294 0 15 3608 28 41241 10450 4.0 32 8 2 8 27% 8859 75378 14079 48%
c x 15.66 31 294 0 15 3608 28 41241 10450 4.0 32 8 2 8 27% 8860 74518 14079 48%
c
c  seconds   switched     rate         size/glue tier1    binary         remaining
c         MB   reductions   conflicts        size  tier2     irredundant
c           level   restarts      redundant    glue   trail         variables
c
c d 15.66 31 294 0 15 3608 28 41241 10449 4.0 32 8 2 8 27% 8858 74518 14078 48%
c t 15.68 31 294 0 15 3608 28 41241 10449 4.0 32 8 2 8 27% 8857 74518 14078 48%
c - 15.79 31 293 0 16 3644 28 41473 9320 4.0 32 8 2 8 27% 8857 74518 14078 48%
c - 16.98 31 287 0 17 4158 29 45475 11330 4.0 32 8 2 8 28% 8895 74518 14078 48%
c - 17.84 31 277 0 18 4498 28 49598 13069 4.0 32 8 2 7 28% 8956 74518 14078 48%
c s 18.18 31 274 0 18 4606 28 52109 15341 3.9 31 8 2 7 28% 8969 71212 14078 48%
c e 18.28 31 274 0 18 4606 28 52109 15341 3.9 31 8 2 7 28% 8445 72028 13729 47%
c s 18.28 31 274 0 18 4606 28 52109 15341 3.9 31 8 2 7 28% 8445 71839 13729 47%
c e 18.29 31 274 0 18 4606 28 52109 15341 3.9 31 8 2 7 28% 8441 71844 13728 47%
c ^ 18.29 31 274 0 18 4606 28 52109 15341 3.9 31 8 2 7 28% 8441 71844 13728 47%
c - 18.63 31 271 0 19 4755 28 53840 13735 3.9 31 8 2 7 28% 8469 71844 13728 47%
c - 19.42 31 265 0 20 5130 27 58198 15374 3.8 31 8 2 7 28% 8524 71844 13728 47%
c d 19.66 31 263 0 20 5248 27 58886 15941 3.8 31 8 2 7 28% 8458 71844 13693 47%
c u 19.74 31 263 0 20 5248 27 58886 13828 3.8 31 8 2 7 28% 8470 71844 13693 47%
c v 19.81 31 263 0 20 5248 27 58886 12316 3.8 31 8 2 7 28% 8472 71844 13693 47%
c w 19.89 31 263 0 20 5248 27 58886 12316 3.8 31 8 2 7 28% 8472 71844 13693 47%
c x 19.98 31 263 0 20 5248 27 58886 12313 3.8 31 8 2 7 28% 8472 71203 13693 47%
c = 20.36 31 263 0 20 5248 27 58886 12313 3.8 31 8 2 7 28% 9068 71203 13395 46%
c d 20.36 31 263 0 20 5248 27 58886 12132 3.8 31 8 2 7 28% 8437 71203 13390 46%
c t 20.38 31 263 0 20 5248 27 58886 12132 3.8 31 8 2 7 28% 8428 71203 13390 46%
c
c  seconds   switched     rate         size/glue tier1    binary         remaining
c         MB   reductions   conflicts        size  tier2     irredundant
c           level   restarts      redundant    glue   trail         variables
c
c f 20.41 31 263 0 20 5248 27 58886 12132 3.8 31 8 2 7 28% 8432 71179 13394 46%
c c 20.47 31 263 0 20 5248 27 58886 12058 3.8 31 8 2 7 28% 8471 71019 13374 46%
c d 20.48 31 263 0 20 5248 27 58886 12058 3.8 31 8 2 7 28% 8431 71019 13374 46%
c u 20.54 31 263 0 20 5248 27 58886 11489 3.8 31 8 2 7 28% 8439 71019 13374 46%
c v 20.59 31 263 0 20 5248 27 58886 11217 3.8 31 8 2 7 28% 8440 71019 13374 46%
c w 20.71 31 263 0 20 5248 27 58886 11181 3.8 31 8 2 7 28% 8440 71019 13374 46%
c x 20.82 31 263 0 20 5248 27 58886 11181 3.8 31 8 2 7 28% 8440 70569 13374 46%
c = 21.21 31 263 0 20 5248 27 58886 11181 3.8 31 8 2 7 28% 9110 70563 13039 44%
c d 21.22 31 263 0 20 5248 27 58886 11034 3.8 31 8 2 7 28% 8400 70563 13038 44%
c t 21.24 31 263 0 20 5248 27 58886 11034 3.8 31 8 2 7 28% 8399 70563 13038 44%
c - 21.83 31 258 0 21 5653 27 62670 12657 3.8 31 8 2 7 28% 8465 70563 13038 44%
c - 22.49 31 250 0 22 6166 27 67252 14839 3.7 31 8 2 7 28% 8492 70563 13038 44%
c o 22.93 31 245 0 22 6468 27 70339 17771 3.7 31 8 2 7 29% 8502 70563 13038 44%
c - 23.14 31 243 0 23 6618 27 71942 16747 3.7 32 8 2 7 29% 8530 70563 13038 44%
c - 24.01 31 237 0 24 7280 27 76737 18481 3.7 32 9 2 6 29% 8561 70563 13038 44%
c c 24.40 31 236 0 24 7522 27 79977 21335 3.7 32 9 2 6 29% 8650 69844 12919 44%
c d 24.41 31 236 0 24 7522 27 79977 20896 3.7 32 9 2 6 29% 8412 69844 12919 44%
c u 24.46 31 236 0 24 7522 27 79977 17932 3.7 32 9 2 6 29% 8427 69844 12919 44%
c v 24.53 31 236 0 24 7522 27 79977 15830 3.7 32 9 2 6 29% 8433 69844 12919 44%
c w 24.59 31 236 0 24 7522 27 79977 15819 3.7 32 9 2 6 29% 8433 69844 12919 44%
c
c  seconds   switched     rate         size/glue tier1    binary         remaining
c         MB   reductions   conflicts        size  tier2     irredundant
c           level   restarts      redundant    glue   trail         variables
c
c x 24.66 31 236 0 24 7522 27 79977 15819 3.7 32 9 2 6 29% 8435 65985 12919 44%
c d 24.68 31 236 0 24 7522 27 79977 15810 3.7 32 9 2 6 29% 8419 65985 12911 44%
c t 24.69 31 236 0 24 7522 27 79977 15810 3.7 32 9 2 6 29% 8413 65985 12911 44%
c c 24.73 31 236 0 24 7522 27 79977 15810 3.7 32 9 2 6 29% 8419 65961 12908 44%
c d 24.73 31 236 0 24 7522 27 79977 15798 3.7 32 9 2 6 29% 8413 65961 12908 44%
c u 24.77 31 236 0 24 7522 27 79977 15110 3.7 32 9 2 6 29% 8415 65961 12908 44%
c v 24.82 31 236 0 24 7522 27 79977 14687 3.7 32 9 2 6 29% 8416 65961 12908 44%
c w 24.92 31 236 0 24 7522 27 79977 14603 3.7 32 9 2 6 29% 8416 65961 12908 44%
c x 25.00 31 236 0 24 7522 27 79977 14602 3.7 32 9 2 6 29% 8416 65888 12908 44%
c d 25.00 31 236 0 24 7522 27 79977 14602 3.7 32 9 2 6 29% 8414 65888 12907 44%
c - 25.17 31 235 0 25 7619 27 81635 12887 3.7 32 9 1 6 29% 8444 65886 12907 44%
c - 25.77 31 230 0 26 8068 26 86636 14306 3.6 32 9 1 6 29% 8504 65880 12907 44%
c - 26.09 31 229 0 27 8315 25 91737 15890 3.6 31 9 1 6 29% 8547 65879 12907 44%
c s 26.47 31 226 0 27 8596 25 95830 19586 3.5 31 9 1 6 29% 8590 65842 12907 44%
c e 26.54 31 226 0 27 8596 25 95830 19586 3.5 31 9 1 6 29% 5667 72699 11420 39%
c 2 26.54 31 226 0 27 8596 25 95830 19586 3.5 31 9 1 6 29% 5664 72699 11420 39%
c s 26.55 31 226 0 27 8596 25 95830 19586 3.5 31 9 1 6 29% 5664 72282 11420 39%
c e 26.56 31 226 0 27 8596 25 95830 19586 3.5 31 9 1 6 29% 5659 72350 11387 39%
c ^ 26.56 31 226 0 27 8596 25 95830 19586 3.5 31 9 1 6 29% 5659 72350 11387 39%
c - 26.69 31 224 0 28 8704 25 96935 12931 3.5 30 9 1 6 29% 5660 72350 11387 39%
c
c  seconds   switched     rate          size/glue tier1    binary         remaining
c         MB   reductions   conflicts         size  tier2     irredundant
c           level   restarts       redundant    glue   trail         variables
c
c - 27.28 31 219 0 29 9243 24 102228 15096 3.4 30 9 1 6 29% 5685 72349 11387 39%
c d 27.56 31 217 0 29 9495 24 104652 17201 3.4 30 9 1 6 29% 5661 72346 11370 39%
c u 27.59 31 217 0 29 9495 24 104652 15569 3.4 30 9 1 6 29% 5670 72346 11370 39%
c v 27.64 31 217 0 29 9495 24 104652 13081 3.4 30 9 1 6 29% 5674 72346 11370 39%
c w 27.77 31 217 0 29 9495 24 104652 13022 3.4 30 9 1 6 29% 5674 72346 11370 39%
c = 28.07 31 217 0 29 9495 24 104652 13022 3.4 30 9 1 6 29% 6028 72276 11187 38%
c d 28.07 31 217 0 29 9495 24 104652 12701 3.4 30 9 1 6 29% 5625 72276 11187 38%
c t 28.08 31 217 0 29 9495 24 104652 12701 3.4 30 9 1 6 29% 5614 72276 11187 38%
c f 28.12 31 217 0 29 9495 24 104652 12701 3.4 30 9 1 6 29% 5628 72192 11194 38%
c u 28.16 31 217 0 29 9495 24 104652 12096 3.4 30 9 1 6 29% 5624 72192 11187 38%
c v 28.19 31 217 0 29 9495 24 104652 11541 3.4 30 9 1 6 29% 5624 72192 11187 38%
c w 28.28 31 217 0 29 9495 24 104652 11428 3.4 30 9 1 6 29% 5624 72192 11187 38%
c x 28.33 31 217 0 29 9495 24 104652 11428 3.4 30 9 1 6 29% 5624 72027 11187 38%
c i 28.76 31 215 0 29 9626 24 106130 12726 3.4 30 9 1 6 29% 5634 72027 11186 38%
c - 28.93 31 214 0 30 9785 24 107614 11833 3.4 30 9 1 6 29% 5626 72026 11186 38%
c o 29.24 31 213 0 30 10070 24 110339 14361 3.4 30 9 1 6 29% 5633 72026 11186 38%
c - 29.54 31 210 0 31 10311 24 113094 14299 3.4 30 9 1 6 29% 5635 72026 11186 38%
c - 30.15 31 205 0 32 10780 24 118661 16328 3.3 30 9 1 6 30% 5637 72025 11186 38%
c i 30.72 31 202 0 32 11210 23 123770 21136 3.3 30 9 1 6 30% 5646 72025 11185 38%
c i 30.72 31 202 0 32 11210 23 123806 21153 3.3 30 9 1 6 30% 5651 72025 11183 38%
c
c  seconds   switched      rate          size/glue tier1    binary         remaining
c         MB   reductions    conflicts         size  tier2     irredundant
c           level   restarts        redundant    glue   trail         variables
c
c i 30.77 31 202 0 32 11243 23 124226 21550 3.3 30 9 1 6 30% 5653 72025 11182 38%
c - 30.78 31 202 0 33 11245 23 124317 17803 3.3 30 9 1 6 30% 5651 72025 11182 38%
c i 30.95 31 200 0 33 11387 23 126156 19511 3.3 30 9 1 6 30% 5657 72024 11180 38%
c i 31.01 31 199 0 33 11430 23 126802 20106 3.3 30 9 1 6 30% 5664 72023 11178 38%
c i 31.09 31 199 0 33 11488 23 127499 20748 3.3 30 9 1 6 30% 5668 72023 11177 38%
c i 31.22 31 197 0 33 11594 23 128530 21697 3.3 30 9 1 6 30% 5675 72023 11173 38%
c i 31.26 31 197 0 33 11628 23 128901 22029 3.3 30 9 1 6 30% 5680 72023 11171 38%
c i 31.26 31 197 0 33 11629 23 128907 22031 3.3 30 9 1 6 30% 5681 72023 11170 38%
c i 31.29 31 197 0 33 11654 23 129216 22295 3.3 30 9 1 6 30% 5683 72023 11169 38%
c - 31.35 31 196 0 34 11693 23 130063 18748 3.3 30 9 1 6 30% 5679 72023 11169 38%
c i 31.47 31 194 0 34 11790 23 131176 19787 3.2 30 9 1 6 30% 5685 72023 11168 38%
c i 31.49 31 194 0 34 11805 23 131658 20182 3.2 30 9 1 6 30% 5694 72023 11165 38%
c i 31.54 31 193 0 34 11838 23 132168 20657 3.2 30 9 1 6 30% 5696 72023 11164 38%
c d 31.59 31 193 0 34 11870 22 132941 21019 3.2 30 9 1 6 30% 5695 71786 11144 38%
c d 31.59 31 193 0 34 11870 22 132941 21004 3.2 30 9 1 6 30% 5655 71786 11124 38%
c u 31.62 31 193 0 34 11870 22 132941 18814 3.2 30 9 1 6 30% 5677 71786 11124 38%
c v 31.69 31 193 0 34 11870 22 132941 15255 3.2 30 9 1 6 30% 5686 71786 11124 38%
c w 31.78 31 193 0 34 11870 22 132941 15098 3.2 30 9 1 6 30% 5687 71786 11124 38%
c d 31.78 31 193 0 34 11870 22 132941 15090 3.2 30 9 1 6 30% 5669 71778 11115 38%
c t 31.79 31 193 0 34 11870 22 132941 15090 3.2 30 9 1 6 30% 5655 71778 11115 38%
c
c  seconds   switched      rate          size/glue tier1    binary         remaining
c         MB   reductions    conflicts         size  tier2     irredundant
c           level   restarts        redundant    glue   trail         variables
c
c b 31.79 31 193 0 34 11870 22 132941 15090 3.2 30 9 1 6 30% 5655 71778 11114 38%
c u 31.82 31 193 0 34 11870 22 132941 14596 3.2 30 9 1 6 30% 5662 71768 11113 38%
c v 31.86 31 193 0 34 11870 22 132941 13909 3.2 30 9 1 6 30% 5662 71768 11113 38%
c w 31.93 31 193 0 34 11870 22 132941 13808 3.2 30 9 1 6 30% 5662 71768 11113 38%
c = 31.98 31 193 0 34 11870 22 132941 13808 3.2 30 9 1 6 30% 5824 71534 11004 37%
c } 31.98 31 193 0 34 11870 22 132941 13808 3.2 30 9 1 6 30% 5824 71534 11085 38%
c 0 31.98 31 193 0 34 11870 22 132941 13808 3.2 30 9 1 6 30% 5824 71534 11085 38%
c
c ---- [ result ] ------------------------------------------------------------
c
s UNSATISFIABLE
c
c ---- [ profiling ] ---------------------------------------------------------
c
c          22.39   70.00 %  search
c          22.39   70.00 %  focused
c           9.03   28.22 %  simplify
c           8.75   27.37 %  probe
c           3.64   11.37 %  vivify
c           3.20   10.00 %  sweep
c           0.63    1.98 %  factor
c           0.59    1.84 %  congruence
c           0.57    1.78 %  eliminate
c           0.51    1.59 %  substitute
c           0.50    1.56 %  preprocess
c           0.19    0.60 %  fastel
c           0.17    0.54 %  reduce
c           0.13    0.41 %  transitive
c           0.10    0.31 %  subsume
c           0.06    0.18 %  backbone
c           0.05    0.14 %  lucky
c           0.02    0.07 %  parse
c =============================================
c          31.98  100.00 %  total
c
c ---- [ statistics ] --------------------------------------------------------
c
c chronological:                         5605                4 %  conflicts
c conflicts:                           132941             4157.05 per second
c congruent:                             3666               12 %  variables
c decisions:                          3031902               22.81 per conflict
c eliminated:                           12639               43 %  variables
c factored:                              4546               15 %  variables
c fast_eliminated:                       8861               70 %  eliminated
c fast_strengthened:                       22                5 %  per strengthened
c fast_subsumed:                           93                1 %  per subsumed
c iterations:                              14                0 %  variables
c propagations:                     129312198          4043582    per second
c reductions:                              34             3910    interval
c reordered:                                5            26588    interval
c restarts:                             11870               11    interval
c strengthened:                           472                0 %  checks
c substituted:                          10113               34 %  variables
c subsumed:                             12555                1 %  checks
c switched:                                 0                0    interval
c vivified:                             69065               12 %  checks
c
c ---- [ glue usage ] --------------------------------------------------------
c
c focused glue 1   used 172667 clauses 54.77% accumulated 54.77% tier1
c focused glue 2   used  64527 clauses 20.47% accumulated 75.24%
c focused glue 3-4 used  33579 clauses 10.65% accumulated 85.89%
c focused glue 5   used   8308 clauses  2.64% accumulated 88.53%
c focused glue 6   used   6167 clauses  1.96% accumulated 90.48% tier2
c
c ---- [ resources ] ---------------------------------------------------------
c
c maximum-resident-set-size:         32333824 bytes         31 MB
c process-time:                            32s              31.98 seconds
c
c ---- [ shutting down ] -----------------------------------------------------
c
c exit 20
